c Output_time 07.06.2020 20:06:27_+0100 1591556787640284619
c ** Program information **
c program_name                          "DQBRG"
c version                               "0.3.0"
c date                                  "29.3.2020"
c gid_id                                "11f285002dd0387f0ebb216c4fcabf3f1c732df2"
c author                                "Oliver Kullmann"
c url                                   "https://github.com/OKullmann/oklibrary/blob/master/Satisfiability/Transformers/Generators/Random/DQBRG.cpp"
c ** Machine information **
c machine_name                          "csverify"
c bogomips                              7182.86
c ** Compilation information **
c compiler_version                      "g++ 8.3.0"
c compilation_date                      "Apr_21_2020 23:53:44"
c compilation_options                   "--std=c++17 -pedantic -Ofast -DNDEBUG -march=native -fwhole-program -static -fno-finite-math-only"
c NDEBUG                                1
c OPTIMIZE                              1
c ** Parameters **
c command-line                          "./DQBRG" "a14 14" "42" "57*1,2|2-2,3" "" "1959747134094409559,0,1591534565250670091,1,7" ""
c output                                "DeQuBlRaGe_28_57_3551281699345079841.dqdimacs"
c options                               "filtered,renamed"
c num_quantifier_blocks                 2
c  quantifier_blocks                    1:a1-14 2:e15-28
c  total_na                             14
c  total_ne                             14
c dependency_option                     ignore_given
c   total_possible_dependencies         196
c   given_prefix_dependencies           196
c   change_value                        42
c   actual_dependencies                 42
c num_clause-blocks                     1
c  clause-blocks                        57 * {1-14,2,1/2} | {15-28,3,1/2}
c num_e-seeds                           25+5=30
c  e-seeds                              2 0 1 0 0 42 3 28 2 14 0 14 1 57 2 1 1 2 1 2 2 2 3 1 2 1959747134094409559 0 1591534565250670091 1 7
p cnf 28 57
a 1 2 3 4 5 6 7 8 9 10 11 12 13 14 0
d 15 2 3 13 14 0
d 16 8 10 14 0
d 17 5 0
d 18 5 6 7 0
d 19 2 4 9 13 0
d 20 8 9 0
d 21 1 2 0
d 22 5 13 0
d 23 3 4 14 0
d 24 4 0
d 25 3 12 0
d 26 1 7 11 14 0
d 27 1 3 6 8 9 10 0
d 28 3 5 7 10 11 0
-5 14 -15 -17 -19 0
2 14 -15 16 19 0
9 10 -15 16 20 0
-9 -14 15 -18 20 0
-8 -9 -15 -19 20 0
-1 2 17 18 21 0
1 -14 -16 19 21 0
9 14 16 -19 -22 0
-3 -6 15 18 22 0
8 14 16 20 22 0
9 -10 16 -19 -23 0
3 10 -15 16 23 0
-5 13 -15 -17 23 0
-3 -9 -15 -19 23 0
6 -7 18 19 -24 0
5 -9 20 -22 -24 0
5 -9 -17 -19 24 0
2 -14 -15 -23 24 0
-3 -8 -16 23 24 0
-2 14 15 22 -25 0
12 -14 -15 -16 25 0
2 13 -19 -24 25 0
10 14 -16 24 25 0
-1 11 15 -16 -26 0
4 10 -16 24 -26 0
-3 11 -15 16 26 0
13 14 -15 24 26 0
2 -13 19 -20 -27 0
-1 3 -20 -22 -27 0
-3 13 -19 22 -27 0
-3 -8 17 -23 -27 0
-8 -9 -18 -23 -27 0
4 7 -18 23 -27 0
2 -14 -15 -24 -27 0
9 -11 15 26 -27 0
-3 14 21 26 -27 0
-4 7 -23 26 -27 0
-3 -6 -15 -21 27 0
1 10 21 22 27 0
3 14 19 -23 27 0
-8 14 17 23 27 0
-1 14 15 -24 27 0
2 6 19 24 27 0
5 -10 17 -26 27 0
8 -11 18 26 27 0
-3 -14 -23 26 27 0
-3 8 16 19 -28 0
-7 -11 -17 20 -28 0
2 7 19 -21 -28 0
-4 5 -19 -22 28 0
7 -14 15 22 28 0
-4 -9 19 -23 28 0
2 3 21 -24 28 0
-5 -10 16 25 28 0
-4 7 24 -26 28 0
-5 -11 23 27 28 0
9 10 24 27 28 0
